single_objective/SL-DABL/OP/problems/op/OPLib-master/instances/gen1/u1060-gen1-50.oplib
NAME : u1060
COMMENT : Drilling problem problem (Reinelt)
TYPE : OP
DIMENSION : 1060
COST_LIMIT : 112047
EDGE_WEIGHT_TYPE : EUC_2D
NODE_COORD_SECTION
1 4.00320e+03 2.99790e+03
2 3.60288e+03 2.49825e+03
3 3.95316e+03 2.84800e+03
4 4.15331e+03 2.94793e+03
5 4.35348e+03 2.74807e+03
6 4.65372e+03 2.44828e+03
7 4.70375e+03 2.59818e+03
8 5.30424e+03 2.69811e+03
9 5.15411e+03 3.04786e+03
10 4.45355e+03 3.54751e+03
11 4.55364e+03 3.74737e+03
12 4.85388e+03 3.94723e+03
13 5.20416e+03 4.09713e+03
14 5.30424e+03 3.99720e+03
15 5.45435e+03 3.64744e+03
16 5.45435e+03 3.84730e+03
17 5.40431e+03 4.09713e+03
18 5.45435e+03 4.04716e+03
19 5.45435e+03 4.14709e+03
20 5.35427e+03 4.14709e+03
21 5.30424e+03 4.49685e+03
22 5.30424e+03 4.59677e+03
23 5.35427e+03 4.74667e+03
24 5.15411e+03 4.94653e+03
25 5.05403e+03 4.84660e+03
26 5.05403e+03 4.64674e+03
27 4.85388e+03 4.44688e+03
28 4.85388e+03 4.34695e+03
29 4.85388e+03 4.24702e+03
30 4.70375e+03 3.99720e+03
31 4.55364e+03 4.04716e+03
32 4.65372e+03 4.34695e+03
33 4.85388e+03 4.84660e+03
34 4.75379e+03 4.94653e+03
35 4.90392e+03 5.09642e+03
36 4.85388e+03 5.04646e+03
37 4.55364e+03 5.44618e+03
38 4.85388e+03 5.64604e+03
39 4.95396e+03 5.84590e+03
40 5.05403e+03 5.54611e+03
41 5.05403e+03 5.34625e+03
42 5.15411e+03 5.54611e+03
43 5.30424e+03 5.79594e+03
44 5.40431e+03 5.69601e+03
45 5.45435e+03 5.64604e+03
46 5.55444e+03 5.54611e+03
47 5.55444e+03 5.14639e+03
48 5.60448e+03 5.29629e+03
49 5.75459e+03 5.64604e+03
50 5.60448e+03 5.79594e+03
51 5.45435e+03 5.94583e+03
52 5.35427e+03 6.04576e+03
53 5.25420e+03 6.14569e+03
54 4.95396e+03 6.14569e+03
55 4.60368e+03 6.29559e+03
56 4.55364e+03 6.04576e+03
57 4.50359e+03 5.89587e+03
58 4.45355e+03 6.14569e+03
59 4.45355e+03 6.24562e+03
60 4.40351e+03 6.69531e+03
61 4.25340e+03 6.54541e+03
62 4.30344e+03 6.79524e+03
63 4.30344e+03 6.89516e+03
64 4.10327e+03 6.99509e+03
65 4.25340e+03 7.14499e+03
66 4.40351e+03 7.19496e+03
67 5.05403e+03 7.14499e+03
68 5.35427e+03 7.04506e+03
69 5.10407e+03 6.89516e+03
70 5.00400e+03 6.79524e+03
71 5.20416e+03 6.49544e+03
72 5.35427e+03 6.64534e+03
73 5.50440e+03 6.39551e+03
74 5.70455e+03 6.59538e+03
75 5.80464e+03 6.39551e+03
76 5.85468e+03 6.34555e+03
77 6.15492e+03 6.04576e+03
78 6.60527e+03 5.69601e+03
79 6.65531e+03 5.64604e+03
80 6.65531e+03 5.74597e+03
81 6.50520e+03 5.99579e+03
82 6.35507e+03 5.64604e+03
83 5.90472e+03 5.29629e+03
84 5.60448e+03 4.79664e+03
85 5.75459e+03 4.94653e+03
86 5.90472e+03 4.89657e+03
87 5.95476e+03 4.84660e+03
88 6.00479e+03 4.99650e+03
89 6.35507e+03 5.14639e+03
90 6.50520e+03 4.99650e+03
91 6.40511e+03 4.89657e+03
92 6.25500e+03 4.94653e+03
93 6.65531e+03 4.54681e+03
94 6.55524e+03 4.54681e+03
95 6.55524e+03 3.94723e+03
96 6.45516e+03 3.94723e+03
97 6.45516e+03 4.04716e+03
98 6.30503e+03 4.29698e+03
99 6.25500e+03 4.54681e+03
100 5.75459e+03 4.64674e+03
101 5.80464e+03 4.29698e+03
102 6.00479e+03 4.29698e+03
103 5.85468e+03 4.04716e+03
104 5.85468e+03 3.94723e+03
105 5.75459e+03 3.64744e+03
106 5.80464e+03 3.69740e+03
107 5.85468e+03 3.74737e+03
108 6.15492e+03 3.94723e+03
109 6.60527e+03 3.49755e+03
110 6.65531e+03 3.54751e+03
111 6.55524e+03 3.54751e+03
112 6.60527e+03 3.29768e+03
113 6.55524e+03 3.34765e+03
114 6.60527e+03 3.09783e+03
115 6.45516e+03 3.34765e+03
116 6.30503e+03 3.29768e+03
117 6.30503e+03 3.49755e+03
118 6.15492e+03 3.34765e+03
119 6.15492e+03 3.44758e+03
120 6.25500e+03 3.14779e+03
121 6.10488e+03 3.19775e+03
122 5.45435e+03 3.24772e+03
123 5.55444e+03 3.34765e+03
124 5.75459e+03 3.04786e+03
125 5.65451e+03 2.84800e+03
126 5.65451e+03 2.74807e+03
127 5.60448e+03 2.59818e+03
128 5.85468e+03 2.94793e+03
129 5.85468e+03 3.04786e+03
130 5.95476e+03 2.84800e+03
131 6.05483e+03 2.84800e+03
132 6.45516e+03 2.74807e+03
133 6.15492e+03 2.44828e+03
134 6.10488e+03 2.59818e+03
135 6.05483e+03 2.54821e+03
136 6.00479e+03 2.39831e+03
137 5.65451e+03 2.34835e+03
138 6.35507e+03 1.64884e+03
139 6.40511e+03 1.59888e+03
140 6.45516e+03 1.64884e+03
141 6.80544e+03 1.59888e+03
142 6.90551e+03 1.49894e+03
143 6.95555e+03 1.54891e+03
144 6.90551e+03 1.59888e+03
145 7.00559e+03 1.69881e+03
146 7.10568e+03 1.69881e+03
147 7.05564e+03 1.54891e+03
148 7.00559e+03 1.49894e+03
149 7.10568e+03 1.39901e+03
150 7.20576e+03 1.39901e+03
151 7.25579e+03 1.44898e+03
152 7.35588e+03 1.44898e+03
153 7.35588e+03 1.64884e+03
154 7.45596e+03 1.64884e+03
155 7.80624e+03 1.59888e+03
156 7.90631e+03 1.59888e+03
157 7.90631e+03 1.49894e+03
158 7.95635e+03 1.54891e+03
159 8.00640e+03 1.49894e+03
160 8.05644e+03 1.54891e+03
161 8.10648e+03 1.39901e+03
162 8.20655e+03 1.39901e+03
163 8.25659e+03 1.44898e+03
164 8.35668e+03 1.44898e+03
165 8.00640e+03 1.69881e+03
166 8.10648e+03 1.69881e+03
167 8.35668e+03 1.64884e+03
168 8.45676e+03 1.64884e+03
169 8.80703e+03 1.59888e+03
170 8.90711e+03 1.49894e+03
171 8.95716e+03 1.54891e+03
172 8.90711e+03 1.59888e+03
173 9.00720e+03 1.69881e+03
174 9.10727e+03 1.69881e+03
175 9.05724e+03 1.54891e+03
176 9.00720e+03 1.49894e+03
177 9.10727e+03 1.39901e+03
178 9.20735e+03 1.39901e+03
179 9.25740e+03 1.44898e+03
180 9.35748e+03 1.44898e+03
181 9.35748e+03 1.64884e+03
182 9.45755e+03 1.64884e+03
183 9.80783e+03 1.59888e+03
184 9.90792e+03 1.59888e+03
185 9.90792e+03 1.49894e+03
186 9.95796e+03 1.54891e+03
187 1.00080e+04 1.49894e+03
188 1.00580e+04 1.54891e+03
189 1.00080e+04 1.69881e+03
190 1.01081e+04 1.69881e+03
191 1.03583e+04 1.64884e+03
192 1.04083e+04 1.59888e+03
193 1.04583e+04 1.64884e+03
194 1.08587e+04 2.34835e+03
195 1.08086e+04 2.59818e+03
196 1.12590e+04 2.84800e+03
197 1.11589e+04 2.84800e+03
198 1.09588e+04 2.84800e+03
199 1.06585e+04 2.74807e+03
200 1.06585e+04 3.04786e+03
201 1.04083e+04 2.99790e+03
202 1.04083e+04 2.89796e+03
203 1.03583e+04 2.84800e+03
204 1.04583e+04 2.74807e+03
205 1.03583e+04 2.44828e+03
206 9.80783e+03 2.59818e+03
207 1.01581e+04 3.04786e+03
208 9.95796e+03 3.04786e+03
209 9.75779e+03 3.14779e+03
210 9.75779e+03 2.74807e+03
211 9.70776e+03 2.79803e+03
212 9.65772e+03 2.84800e+03
213 9.60768e+03 2.79803e+03
214 9.35748e+03 2.84800e+03
215 9.20735e+03 2.79803e+03
216 9.25740e+03 2.94793e+03
217 9.65772e+03 3.14779e+03
218 9.45755e+03 3.44758e+03
219 9.55764e+03 3.74737e+03
220 9.35748e+03 3.94723e+03
221 9.75779e+03 3.84730e+03
222 9.70776e+03 3.99720e+03
223 9.80783e+03 3.99720e+03
224 1.01581e+04 4.04716e+03
225 9.80783e+03 4.39692e+03
226 9.85788e+03 4.34695e+03
227 9.90792e+03 4.39692e+03
228 1.01081e+04 4.39692e+03
229 1.01081e+04 4.49685e+03
230 1.02082e+04 4.39692e+03
231 1.03082e+04 4.49685e+03
232 1.04083e+04 4.19705e+03
233 1.04083e+04 4.09713e+03
234 1.06585e+04 4.04716e+03
235 1.08086e+04 4.29698e+03
236 1.08086e+04 4.39692e+03
237 1.05084e+04 4.49685e+03
238 1.05084e+04 4.59677e+03
239 1.07085e+04 4.59677e+03
240 1.08086e+04 4.69670e+03
241 1.04083e+04 4.99650e+03
242 1.05084e+04 4.99650e+03
243 1.05084e+04 5.19635e+03
244 1.08086e+04 4.99650e+03
245 1.09087e+04 4.99650e+03
246 1.08587e+04 4.94653e+03
247 1.10088e+04 4.69670e+03
248 1.12590e+04 4.54681e+03
249 1.11089e+04 4.39692e+03
250 1.10088e+04 4.29698e+03
251 1.10088e+04 4.39692e+03
252 1.11089e+04 4.29698e+03
253 1.12590e+04 4.14709e+03
254 1.15592e+04 3.84730e+03
255 1.13591e+04 4.04716e+03
256 1.13591e+04 3.74737e+03
257 1.11589e+04 3.74737e+03
258 1.09588e+04 3.84730e+03
259 1.05584e+04 3.34765e+03
260 1.03583e+04 3.54751e+03
261 1.05584e+04 3.64744e+03
262 1.08086e+04 3.49755e+03
263 1.08587e+04 3.64744e+03
264 1.12590e+04 3.34765e+03
265 1.13591e+04 3.54751e+03
266 1.15592e+04 3.44758e+03
267 1.15092e+04 3.09783e+03
268 1.20096e+04 2.99790e+03
269 1.22598e+04 2.84800e+03
270 1.19595e+04 2.44828e+03
271 1.18595e+04 2.54821e+03
272 1.20096e+04 2.69811e+03
273 1.22598e+04 2.54821e+03
274 1.28102e+04 2.39831e+03
275 1.25600e+04 2.74807e+03
276 1.26601e+04 2.94793e+03
277 1.24600e+04 2.94793e+03
278 1.23599e+04 3.14779e+03
279 1.23599e+04 3.34765e+03
280 1.22598e+04 3.44758e+03
281 1.27102e+04 3.79733e+03
282 1.24600e+04 3.84730e+03
283 1.21597e+04 3.84730e+03
284 1.21597e+04 3.94723e+03
285 1.20096e+04 4.09713e+03
286 1.18595e+04 4.04716e+03
287 1.19595e+04 4.44688e+03
288 1.20096e+04 4.39692e+03
289 1.21597e+04 4.34695e+03
290 1.25600e+04 4.44688e+03
291 1.24099e+04 4.49685e+03
292 1.23098e+04 4.59677e+03
293 1.24600e+04 4.74667e+03
294 1.24600e+04 4.84660e+03
295 1.24600e+04 4.94653e+03
296 1.27602e+04 4.94653e+03
297 1.27602e+04 5.14639e+03
298 1.24600e+04 5.14639e+03
299 1.25100e+04 5.19635e+03
300 1.24600e+04 5.24632e+03
301 1.22598e+04 5.04646e+03
302 1.21597e+04 5.24632e+03
303 1.20596e+04 4.94653e+03
304 1.18094e+04 4.99650e+03
305 1.18595e+04 5.34625e+03
306 1.16593e+04 5.64604e+03
307 1.15092e+04 5.29629e+03
308 1.15092e+04 5.09642e+03
309 1.16093e+04 4.89657e+03
310 1.15592e+04 4.44688e+03
311 1.16093e+04 4.39692e+03
312 1.16593e+04 4.54681e+03
313 1.14091e+04 4.89657e+03
314 1.13090e+04 4.89657e+03
315 1.14592e+04 5.04646e+03
316 1.13591e+04 5.24632e+03
317 1.13591e+04 5.44618e+03
318 1.16593e+04 5.74597e+03
319 1.18595e+04 5.64604e+03
320 1.21597e+04 5.54611e+03
321 1.22598e+04 5.84590e+03
322 1.20596e+04 6.04576e+03
323 1.21597e+04 6.14569e+03
324 1.20096e+04 6.29559e+03
325 1.21597e+04 6.54541e+03
326 1.23599e+04 5.94583e+03
327 1.24600e+04 6.04576e+03
328 1.27102e+04 6.49544e+03
329 1.25600e+04 6.54541e+03
330 1.25100e+04 6.59538e+03
331 1.22598e+04 6.84520e+03
332 1.21097e+04 6.79524e+03
333 1.21097e+04 6.89516e+03
334 1.19095e+04 6.79524e+03
335 1.21097e+04 6.99509e+03
336 1.23098e+04 7.19496e+03
337 1.23098e+04 7.29488e+03
338 1.24600e+04 7.14499e+03
339 1.27102e+04 6.79524e+03
340 1.27102e+04 6.99509e+03
341 1.27102e+04 7.09503e+03
342 1.30104e+04 6.99509e+03
343 1.32606e+04 7.34485e+03
344 1.31605e+04 6.74527e+03
345 1.30604e+04 6.44548e+03
346 1.33106e+04 6.59538e+03
347 1.33106e+04 6.69531e+03
348 1.34608e+04 6.54541e+03
349 1.31605e+04 6.14569e+03
350 1.25600e+04 5.64604e+03
351 1.25100e+04 5.69601e+03
352 1.27102e+04 5.79594e+03
353 1.29603e+04 5.64604e+03
354 1.29603e+04 5.84590e+03
355 1.32606e+04 6.04576e+03
356 1.33607e+04 6.04576e+03
357 1.34608e+04 6.14569e+03
358 1.34608e+04 5.84590e+03
359 1.37110e+04 5.49614e+03
360 1.38611e+04 5.64604e+03
361 1.36609e+04 5.74597e+03
362 1.35608e+04 5.74597e+03
363 1.33607e+04 5.64604e+03
364 1.33607e+04 5.44618e+03
365 1.32606e+04 5.24632e+03
366 1.35608e+04 5.34625e+03
367 1.35608e+04 5.24632e+03
368 1.37110e+04 5.19635e+03
369 1.36609e+04 5.14639e+03
370 1.33607e+04 4.94653e+03
371 1.31605e+04 4.74667e+03
372 1.34608e+04 4.64674e+03
373 1.33106e+04 4.49685e+03
374 1.29603e+04 4.04716e+03
375 1.32606e+04 4.24702e+03
376 1.36109e+04 4.19705e+03
377 1.39612e+04 4.34695e+03
378 1.40112e+04 4.39692e+03
379 1.40612e+04 4.14709e+03
380 1.39612e+04 4.14709e+03
381 1.39612e+04 3.94723e+03
382 1.39612e+04 3.84730e+03
383 1.37610e+04 3.74737e+03
384 1.36109e+04 3.79733e+03
385 1.33607e+04 3.74737e+03
386 1.34608e+04 3.64744e+03
387 1.35608e+04 3.54751e+03
388 1.38611e+04 3.34765e+03
389 1.28603e+04 3.04786e+03
390 1.29603e+04 3.14779e+03
391 1.34608e+04 2.44828e+03
392 1.38110e+04 2.49825e+03
393 1.38110e+04 2.89796e+03
394 1.40612e+04 2.84800e+03
395 1.41113e+04 2.79803e+03
396 1.42614e+04 2.94793e+03
397 1.44615e+04 2.94793e+03
398 1.46617e+04 2.84800e+03
399 1.46617e+04 3.04786e+03
400 1.47618e+04 3.14779e+03
401 1.48619e+04 3.14779e+03
402 1.50120e+04 3.19775e+03
403 1.48118e+04 3.19775e+03
404 1.44115e+04 3.29768e+03
405 1.43615e+04 3.24772e+03
406 1.41613e+04 3.54751e+03
407 1.44615e+04 3.84730e+03
408 1.45616e+04 3.84730e+03
409 1.47618e+04 3.84730e+03
410 1.47618e+04 4.04716e+03
411 1.48619e+04 4.14709e+03
412 1.48619e+04 4.34695e+03
413 1.49620e+04 4.04716e+03
414 1.51621e+04 3.74737e+03
415 1.51621e+04 3.84730e+03
416 1.53623e+04 3.54751e+03
417 1.54123e+04 3.49755e+03
418 1.54623e+04 3.54751e+03
419 1.53623e+04 3.74737e+03
420 1.50620e+04 4.14709e+03
421 1.50620e+04 4.24702e+03
422 1.51621e+04 4.24702e+03
423 1.54123e+04 4.19705e+03
424 1.55624e+04 3.94723e+03
425 1.55624e+04 3.84730e+03
426 1.56625e+04 3.84730e+03
427 1.58627e+04 3.64744e+03
428 1.51621e+04 2.84800e+03
429 1.52622e+04 2.54821e+03
430 1.53623e+04 2.94793e+03
431 1.54123e+04 2.89796e+03
432 1.55624e+04 2.94793e+03
433 1.58627e+04 2.94793e+03
434 1.60128e+04 2.79803e+03
435 1.60628e+04 2.94793e+03
436 1.61129e+04 2.79803e+03
437 1.62630e+04 2.54821e+03
438 1.62630e+04 2.84800e+03
439 1.62630e+04 3.04786e+03
440 1.62630e+04 3.14779e+03
441 1.62130e+04 3.49755e+03
442 1.63631e+04 3.54751e+03
443 1.65132e+04 3.29768e+03
444 1.65632e+04 3.34765e+03
445 1.67634e+04 3.44758e+03
446 1.69636e+04 3.54751e+03
447 1.65632e+04 3.84730e+03
448 1.65132e+04 3.79733e+03
449 1.66133e+04 3.99720e+03
450 1.67634e+04 4.04716e+03
451 1.69636e+04 3.74737e+03
452 1.70136e+04 3.89727e+03
453 1.73639e+04 4.14709e+03
454 1.73639e+04 4.34695e+03
455 1.72138e+04 4.39692e+03
456 1.68134e+04 4.39692e+03
457 1.67634e+04 4.34695e+03
458 1.66633e+04 4.24702e+03
459 1.66133e+04 4.39692e+03
460 1.64632e+04 4.94653e+03
461 1.62630e+04 4.94653e+03
462 1.62130e+04 4.59677e+03
463 1.61129e+04 4.69670e+03
464 1.57626e+04 4.64674e+03
465 1.58627e+04 5.24632e+03
466 1.54623e+04 5.44618e+03
467 1.57626e+04 5.44618e+03
468 1.58627e+04 5.54611e+03
469 1.59127e+04 5.59607e+03
470 1.56625e+04 5.54611e+03
471 1.56625e+04 5.64604e+03
472 1.56625e+04 5.74597e+03
473 1.55624e+04 5.64604e+03
474 1.55624e+04 5.74597e+03
475 1.57626e+04 5.94583e+03
476 1.58126e+04 5.89587e+03
477 1.60628e+04 5.94583e+03
478 1.59628e+04 6.04576e+03
479 1.59127e+04 6.29559e+03
480 1.57626e+04 6.14569e+03
481 1.57626e+04 6.24562e+03
482 1.54623e+04 6.14569e+03
483 1.54123e+04 6.09572e+03
484 1.46617e+04 4.94653e+03
485 1.44615e+04 4.94653e+03
486 1.44115e+04 4.69670e+03
487 1.42614e+04 4.84660e+03
488 1.41613e+04 4.84660e+03
489 1.41613e+04 5.04646e+03
490 1.39612e+04 5.04646e+03
491 1.43615e+04 5.44618e+03
492 1.44615e+04 5.44618e+03
493 1.43615e+04 5.54611e+03
494 1.41613e+04 5.64604e+03
495 1.45616e+04 5.84590e+03
496 1.49620e+04 6.04576e+03
497 1.50120e+04 6.29559e+03
498 1.46117e+04 6.29559e+03
499 1.44115e+04 6.29559e+03
500 1.44615e+04 6.44548e+03
501 1.44615e+04 6.54541e+03
502 1.46117e+04 6.49544e+03
503 1.49119e+04 6.59538e+03
504 1.49620e+04 6.74527e+03
505 1.44615e+04 6.94513e+03
506 1.40612e+04 6.74527e+03
507 1.42113e+04 6.39551e+03
508 1.40112e+04 6.29559e+03
509 1.40112e+04 6.39551e+03
510 1.40112e+04 6.59538e+03
511 1.39612e+04 6.64534e+03
512 1.40612e+04 6.84520e+03
513 1.40112e+04 6.79524e+03
514 1.44615e+04 7.34485e+03
515 1.50620e+04 6.94513e+03
516 1.51121e+04 6.89516e+03
517 1.51121e+04 6.99509e+03
518 1.50620e+04 6.64534e+03
519 1.52622e+04 6.54541e+03
520 1.52122e+04 6.69531e+03
521 1.52622e+04 6.94513e+03
522 1.53122e+04 6.99509e+03
523 1.53623e+04 7.04506e+03
524 1.55124e+04 6.99509e+03
525 1.56625e+04 6.74527e+03
526 1.59628e+04 6.44548e+03
527 1.61129e+04 6.39551e+03
528 1.61129e+04 6.29559e+03
529 1.62630e+04 6.24562e+03
530 1.63130e+04 6.29559e+03
531 1.62630e+04 6.44548e+03
532 1.59628e+04 6.64534e+03
533 1.61629e+04 6.84520e+03
534 1.65132e+04 6.89516e+03
535 1.64632e+04 7.14499e+03
536 1.69135e+04 6.99509e+03
537 1.69636e+04 6.94513e+03
538 1.72138e+04 7.09503e+03
539 1.67133e+04 6.69531e+03
540 1.68134e+04 6.39551e+03
541 1.68635e+04 6.44548e+03
542 1.70136e+04 6.59538e+03
543 1.72638e+04 6.64534e+03
544 1.73138e+04 6.49544e+03
545 1.78643e+04 6.24562e+03
546 1.75640e+04 6.24562e+03
547 1.73639e+04 6.24562e+03
548 1.73639e+04 5.94583e+03
549 1.70136e+04 6.19566e+03
550 1.65632e+04 6.14569e+03
551 1.65632e+04 6.04576e+03
552 1.67634e+04 5.84590e+03
553 1.68635e+04 5.64604e+03
554 1.64632e+04 5.34625e+03
555 1.65632e+04 5.14639e+03
556 1.66633e+04 4.94653e+03
557 1.68635e+04 5.04646e+03
558 1.69636e+04 4.84660e+03
559 1.71137e+04 4.69670e+03
560 1.70136e+04 4.89657e+03
561 1.70136e+04 4.99650e+03
562 1.69636e+04 5.14639e+03
563 1.71637e+04 5.14639e+03
564 1.71637e+04 5.24632e+03
565 1.72638e+04 5.34625e+03
566 1.74139e+04 5.09642e+03
567 1.74640e+04 5.04646e+03
568 1.76141e+04 5.09642e+03
569 1.78643e+04 4.74667e+03
570 1.77642e+04 4.84660e+03
571 1.75640e+04 4.64674e+03
572 1.78142e+04 5.19635e+03
573 1.79143e+04 5.39622e+03
574 1.79643e+04 5.54611e+03
575 1.81645e+04 5.74597e+03
576 1.82646e+04 5.74597e+03
577 1.83647e+04 5.64604e+03
578 1.84648e+04 5.64604e+03
579 1.82646e+04 5.54611e+03
580 1.83647e+04 5.34625e+03
581 1.84648e+04 5.24632e+03
582 1.85648e+04 5.04646e+03
583 1.84648e+04 5.04646e+03
584 1.83647e+04 5.04646e+03
585 1.82646e+04 5.14639e+03
586 1.82646e+04 4.94653e+03
587 1.81645e+04 4.84660e+03
588 1.80644e+04 4.94653e+03
589 1.80644e+04 4.74667e+03
590 1.81645e+04 4.64674e+03
591 1.82646e+04 4.64674e+03
592 1.77642e+04 4.14709e+03
593 1.77642e+04 4.04716e+03
594 1.76141e+04 3.99720e+03
595 1.75640e+04 4.04716e+03
596 1.75640e+04 3.84730e+03
597 1.74640e+04 3.64744e+03
598 1.72638e+04 3.64744e+03
599 1.70636e+04 3.34765e+03
600 1.68635e+04 3.24772e+03
601 1.65132e+04 2.79803e+03
602 1.66633e+04 2.84800e+03
603 1.68134e+04 2.79803e+03
604 1.70136e+04 2.99790e+03
605 1.69636e+04 2.94793e+03
606 1.71137e+04 2.79803e+03
607 1.73639e+04 2.94793e+03
608 1.74640e+04 2.74807e+03
609 1.73639e+04 2.84800e+03
610 1.69636e+04 2.44828e+03
611 1.68635e+04 2.44828e+03
612 1.68134e+04 1.69881e+03
613 1.69636e+04 1.64884e+03
614 1.67634e+04 1.44898e+03
615 1.65632e+04 1.34905e+03
616 1.67133e+04 1.29909e+03
617 1.69135e+04 1.39901e+03
618 1.70636e+04 1.34905e+03
619 1.71137e+04 1.59888e+03
620 1.72638e+04 1.54891e+03
621 1.73138e+04 1.69881e+03
622 1.74640e+04 1.64884e+03
623 1.74139e+04 1.49894e+03
624 1.72138e+04 1.29909e+03
625 1.75640e+04 1.44898e+03
626 1.76141e+04 1.59888e+03
627 1.77142e+04 1.39901e+03
628 1.77642e+04 1.54891e+03
629 1.78643e+04 1.34905e+03
630 1.80144e+04 1.29909e+03
631 1.80644e+04 1.44898e+03
632 1.79143e+04 1.49894e+03
633 1.81145e+04 1.69881e+03
634 1.82646e+04 1.64884e+03
635 1.84147e+04 1.59888e+03
636 1.82146e+04 1.39901e+03
637 1.83647e+04 1.34905e+03
638 1.85148e+04 1.29909e+03
639 1.86149e+04 1.29909e+03
640 1.86649e+04 1.34905e+03
641 1.86149e+04 1.39901e+03
642 1.86149e+04 1.49894e+03
643 1.86649e+04 1.54891e+03
644 1.86649e+04 1.44898e+03
645 1.87150e+04 1.39901e+03
646 1.87150e+04 1.29909e+03
647 1.87650e+04 1.34905e+03
648 1.88150e+04 1.29909e+03
649 1.88150e+04 1.39901e+03
650 1.88651e+04 1.34905e+03
651 1.89151e+04 1.29909e+03
652 1.89151e+04 1.39901e+03
653 1.88651e+04 1.44898e+03
654 1.89151e+04 1.49894e+03
655 1.89151e+04 1.59888e+03
656 1.89151e+04 1.69881e+03
657 1.88651e+04 1.64884e+03
658 1.88150e+04 1.59888e+03
659 1.88651e+04 1.54891e+03
660 1.88150e+04 1.49894e+03
661 1.87650e+04 1.44898e+03
662 1.87150e+04 1.49894e+03
663 1.87650e+04 1.54891e+03
664 1.87150e+04 1.59888e+03
665 1.87650e+04 1.64884e+03
666 1.88150e+04 1.69881e+03
667 1.87150e+04 1.69881e+03
668 1.86649e+04 1.64884e+03
669 1.86149e+04 1.59888e+03
670 1.86149e+04 1.69881e+03
671 1.78643e+04 2.54821e+03
672 1.84147e+04 2.59818e+03
673 1.85648e+04 2.44828e+03
674 1.83647e+04 2.84800e+03
675 1.82646e+04 2.94793e+03
676 1.85648e+04 3.04786e+03
677 1.87150e+04 2.89796e+03
678 1.89151e+04 2.69811e+03
679 1.88150e+04 2.89796e+03
680 1.86149e+04 3.29768e+03
681 1.85648e+04 3.34765e+03
682 1.84648e+04 3.44758e+03
683 1.78643e+04 2.84800e+03
684 1.78643e+04 3.14779e+03
685 1.79643e+04 3.54751e+03
686 1.80644e+04 3.84730e+03
687 1.82146e+04 3.99720e+03
688 1.82646e+04 3.94723e+03
689 1.83647e+04 3.84730e+03
690 1.84648e+04 3.74737e+03
691 1.87150e+04 4.19705e+03
692 1.86649e+04 4.24702e+03
693 1.84648e+04 4.24702e+03
694 1.82646e+04 4.24702e+03
695 1.83647e+04 4.34695e+03
696 1.85148e+04 4.59677e+03
697 1.84147e+04 4.69670e+03
698 1.86649e+04 4.84660e+03
699 1.89151e+04 4.69670e+03
700 1.89652e+04 4.64674e+03
701 1.88651e+04 4.54681e+03
702 1.88651e+04 4.04716e+03
703 1.88651e+04 3.94723e+03
704 1.88150e+04 3.79733e+03
705 1.88651e+04 3.84730e+03
706 1.90152e+04 4.09713e+03
707 1.91153e+04 4.19705e+03
708 1.92153e+04 4.19705e+03
709 1.94656e+04 3.94723e+03
710 1.94656e+04 3.84730e+03
711 1.94656e+04 3.74737e+03
712 1.91153e+04 3.29768e+03
713 1.93655e+04 3.24772e+03
714 1.94656e+04 2.94793e+03
715 1.93655e+04 2.84800e+03
716 1.91153e+04 2.69811e+03
717 1.93655e+04 2.54821e+03
718 1.97158e+04 2.49825e+03
719 2.13170e+04 2.09853e+03
720 1.95156e+04 4.09713e+03
721 1.93655e+04 4.14709e+03
722 1.93154e+04 4.19705e+03
723 1.91653e+04 4.64674e+03
724 1.93655e+04 4.74667e+03
725 1.92153e+04 5.09642e+03
726 1.90152e+04 5.19635e+03
727 1.91153e+04 5.29629e+03
728 1.92153e+04 5.29629e+03
729 1.91153e+04 5.49614e+03
730 1.89151e+04 5.99579e+03
731 1.89652e+04 5.94583e+03
732 1.94155e+04 6.29559e+03
733 1.97158e+04 7.19496e+03
734 1.88150e+04 6.19566e+03
735 1.86649e+04 6.14569e+03
736 1.84648e+04 5.84590e+03
737 1.81645e+04 6.04576e+03
738 1.81645e+04 6.14569e+03
739 1.84648e+04 6.54541e+03
740 1.82146e+04 6.59538e+03
741 1.81145e+04 6.89516e+03
742 1.83146e+04 7.19496e+03
743 1.82146e+04 7.19496e+03
744 1.81645e+04 7.14499e+03
745 1.80644e+04 7.14499e+03
746 1.80144e+04 7.19496e+03
747 1.79643e+04 7.14499e+03
748 1.77642e+04 7.14499e+03
749 1.74640e+04 7.34485e+03
750 1.68635e+04 8.34415e+03
751 1.68134e+04 8.39411e+03
752 1.67634e+04 8.34415e+03
753 1.64131e+04 8.39411e+03
754 1.63130e+04 8.49405e+03
755 1.62630e+04 8.44408e+03
756 1.63130e+04 8.39411e+03
757 1.62130e+04 8.29418e+03
758 1.61129e+04 8.29418e+03
759 1.61629e+04 8.44408e+03
760 1.62130e+04 8.49405e+03
761 1.61129e+04 8.59398e+03
762 1.60128e+04 8.59398e+03
763 1.59628e+04 8.54401e+03
764 1.58627e+04 8.54401e+03
765 1.58627e+04 8.34415e+03
766 1.57626e+04 8.34415e+03
767 1.54123e+04 8.39411e+03
768 1.53122e+04 8.39411e+03
769 1.53122e+04 8.49405e+03
770 1.52622e+04 8.44408e+03
771 1.52122e+04 8.49405e+03
772 1.51121e+04 8.59398e+03
773 1.50120e+04 8.59398e+03
774 1.49620e+04 8.54401e+03
775 1.48619e+04 8.54401e+03
776 1.51621e+04 8.44408e+03
777 1.52122e+04 8.29418e+03
778 1.51121e+04 8.29418e+03
779 1.48619e+04 8.34415e+03
780 1.47618e+04 8.34415e+03
781 1.44115e+04 8.39411e+03
782 1.43114e+04 8.49405e+03
783 1.42614e+04 8.44408e+03
784 1.43114e+04 8.39411e+03
785 1.42113e+04 8.29418e+03
786 1.41113e+04 8.29418e+03
787 1.41613e+04 8.44408e+03
788 1.42113e+04 8.49405e+03
789 1.41113e+04 8.59398e+03
790 1.40112e+04 8.59398e+03
791 1.39612e+04 8.54401e+03
792 1.38611e+04 8.54401e+03
793 1.38611e+04 8.34415e+03
794 1.37610e+04 8.34415e+03
795 1.34107e+04 8.39411e+03
796 1.33106e+04 8.39411e+03
797 1.33106e+04 8.49405e+03
798 1.32606e+04 8.44408e+03
799 1.32105e+04 8.49405e+03
800 1.31605e+04 8.44408e+03
801 1.32105e+04 8.29418e+03
802 1.31105e+04 8.29418e+03
803 1.28603e+04 8.34415e+03
804 1.28102e+04 8.39411e+03
805 1.27602e+04 8.34415e+03
806 1.15092e+04 7.19496e+03
807 1.12590e+04 6.84520e+03
808 1.10088e+04 7.09503e+03
809 1.07586e+04 6.94513e+03
810 1.10088e+04 6.79524e+03
811 1.10088e+04 6.69531e+03
812 1.11089e+04 6.49544e+03
813 1.15092e+04 6.49544e+03
814 1.11089e+04 6.09572e+03
815 1.11589e+04 5.94583e+03
816 1.12590e+04 5.54611e+03
817 1.10088e+04 5.79594e+03
818 1.07085e+04 6.09572e+03
819 1.03583e+04 5.64604e+03
820 1.04083e+04 5.79594e+03
821 1.04583e+04 6.04576e+03
822 1.03082e+04 6.29559e+03
823 1.02082e+04 6.39551e+03
824 1.02082e+04 6.49544e+03
825 1.03583e+04 6.84520e+03
826 1.02082e+04 6.79524e+03
827 9.75779e+03 6.74527e+03
828 9.40751e+03 6.79524e+03
829 9.45755e+03 6.94513e+03
830 9.75779e+03 7.04506e+03
831 1.00580e+04 7.14499e+03
832 9.80783e+03 6.89516e+03
833 9.75779e+03 6.44548e+03
834 9.90792e+03 6.29559e+03
835 1.01581e+04 6.14569e+03
836 9.95796e+03 5.94583e+03
837 1.01581e+04 5.84590e+03
838 9.75779e+03 5.84590e+03
839 1.01581e+04 5.34625e+03
840 1.03583e+04 5.14639e+03
841 1.01581e+04 5.14639e+03
842 1.01581e+04 4.94653e+03
843 1.00580e+04 4.84660e+03
844 1.00580e+04 4.94653e+03
845 1.00080e+04 5.09642e+03
846 9.95796e+03 5.04646e+03
847 9.65772e+03 5.04646e+03
848 9.60768e+03 5.09642e+03
849 9.55764e+03 5.14639e+03
850 9.55764e+03 5.04646e+03
851 9.45755e+03 4.94653e+03
852 9.65772e+03 4.94653e+03
853 1.00580e+04 4.54681e+03
854 9.90792e+03 4.59677e+03
855 9.60768e+03 4.59677e+03
856 9.70776e+03 4.39692e+03
857 9.55764e+03 4.34695e+03
858 9.45755e+03 4.24702e+03
859 9.55764e+03 4.14709e+03
860 9.55764e+03 4.24702e+03
861 9.05724e+03 4.14709e+03
862 8.95716e+03 4.04716e+03
863 8.95716e+03 3.84730e+03
864 9.05724e+03 3.84730e+03
865 9.05724e+03 3.74737e+03
866 8.95716e+03 3.44758e+03
867 9.00720e+03 2.79803e+03
868 8.75700e+03 2.84800e+03
869 8.35668e+03 3.04786e+03
870 8.15651e+03 2.74807e+03
871 8.15651e+03 3.04786e+03
872 8.05644e+03 3.04786e+03
873 7.95635e+03 2.94793e+03
874 7.85627e+03 2.84800e+03
875 7.75620e+03 2.54821e+03
876 7.75620e+03 2.44828e+03
877 7.65611e+03 2.54821e+03
878 7.70616e+03 2.79803e+03
879 7.60607e+03 2.79803e+03
880 7.85627e+03 3.14779e+03
881 7.75620e+03 3.34765e+03
882 7.55603e+03 3.44758e+03
883 6.95555e+03 3.24772e+03
884 6.95555e+03 2.84800e+03
885 7.10568e+03 2.59818e+03
886 7.05564e+03 2.84800e+03
887 7.10568e+03 2.79803e+03
888 6.75540e+03 3.24772e+03
889 7.00559e+03 3.49755e+03
890 6.95555e+03 3.84730e+03
891 7.00559e+03 3.89727e+03
892 6.75540e+03 4.14709e+03
893 7.15572e+03 3.84730e+03
894 7.25579e+03 4.14709e+03
895 7.55603e+03 4.24702e+03
896 7.30583e+03 4.49685e+03
897 7.50600e+03 4.59677e+03
898 7.45596e+03 4.84660e+03
899 7.65611e+03 4.84660e+03
900 7.85627e+03 4.34695e+03
901 7.75620e+03 4.14709e+03
902 8.05644e+03 4.24702e+03
903 8.05644e+03 4.04716e+03
904 8.10648e+03 3.99720e+03
905 8.15651e+03 3.94723e+03
906 8.15651e+03 4.04716e+03
907 8.35668e+03 3.94723e+03
908 8.55683e+03 3.84730e+03
909 8.35668e+03 3.54751e+03
910 8.55683e+03 3.54751e+03
911 8.60688e+03 3.59748e+03
912 8.65692e+03 3.94723e+03
913 8.60688e+03 3.99720e+03
914 8.65692e+03 4.14709e+03
915 8.75700e+03 4.24702e+03
916 8.60688e+03 4.29698e+03
917 8.50679e+03 4.49685e+03
918 8.75700e+03 4.64674e+03
919 8.90711e+03 4.39692e+03
920 9.00720e+03 4.59677e+03
921 9.10727e+03 4.39692e+03
922 9.20735e+03 4.59677e+03
923 9.05724e+03 4.84660e+03
924 8.75700e+03 4.84660e+03
925 8.60688e+03 4.99650e+03
926 8.55683e+03 4.84660e+03
927 8.35668e+03 4.94653e+03
928 8.35668e+03 5.64604e+03
929 8.45676e+03 5.94583e+03
930 8.35668e+03 5.84590e+03
931 8.35668e+03 5.94583e+03
932 8.35668e+03 6.14569e+03
933 8.35668e+03 6.24562e+03
934 8.30664e+03 6.39551e+03
935 8.95716e+03 6.04576e+03
936 9.05724e+03 6.04576e+03
937 9.15731e+03 5.94583e+03
938 9.05724e+03 5.74597e+03
939 9.50759e+03 5.89587e+03
940 9.15731e+03 6.24562e+03
941 9.00720e+03 6.49544e+03
942 8.80703e+03 6.99509e+03
943 8.25659e+03 7.14499e+03
944 8.40672e+03 7.29488e+03
945 8.10648e+03 6.99509e+03
946 8.10648e+03 6.89516e+03
947 8.05644e+03 6.84520e+03
948 7.90631e+03 6.89516e+03
949 7.65611e+03 6.44548e+03
950 7.35588e+03 6.14569e+03
951 7.65611e+03 5.94583e+03
952 7.85627e+03 5.74597e+03
953 8.10648e+03 5.69601e+03
954 7.95635e+03 5.94583e+03
955 7.45596e+03 5.94583e+03
956 7.35588e+03 5.84590e+03
957 7.05564e+03 6.14569e+03
958 6.90551e+03 5.89587e+03
959 6.95555e+03 6.04576e+03
960 6.95555e+03 6.14569e+03
961 6.85548e+03 6.14569e+03
962 6.85548e+03 6.24562e+03
963 7.00559e+03 6.29559e+03
964 7.25579e+03 6.34555e+03
965 6.90551e+03 6.89516e+03
966 7.80624e+03 6.99509e+03
967 8.00640e+03 7.29488e+03
968 7.90631e+03 7.29488e+03
969 7.75620e+03 7.34485e+03
970 6.65531e+03 8.64394e+03
971 6.45516e+03 8.54401e+03
972 6.50520e+03 8.69390e+03
973 6.30503e+03 8.59398e+03
974 6.15492e+03 8.64394e+03
975 6.40511e+03 8.29418e+03
976 6.25500e+03 8.34415e+03
977 6.10488e+03 8.39411e+03
978 5.95476e+03 8.44408e+03
979 5.90472e+03 8.29418e+03
980 5.75459e+03 8.34415e+03
981 5.80464e+03 8.49405e+03
982 6.00479e+03 8.69390e+03
983 5.65451e+03 8.54401e+03
984 5.60448e+03 8.39411e+03
985 5.50440e+03 8.59398e+03
986 5.45435e+03 8.44408e+03
987 5.35427e+03 8.64394e+03
988 5.20416e+03 8.69390e+03
989 5.15411e+03 8.54401e+03
990 5.30424e+03 8.49405e+03
991 5.10407e+03 8.29418e+03
992 4.95396e+03 8.34415e+03
993 4.80383e+03 8.39411e+03
994 5.00400e+03 8.59398e+03
995 4.85388e+03 8.64394e+03
996 4.70375e+03 8.69390e+03
997 4.60368e+03 8.69390e+03
998 4.55364e+03 8.64394e+03
999 4.60368e+03 8.59398e+03
1000 4.60368e+03 8.49405e+03
1001 4.55364e+03 8.44408e+03
1002 4.55364e+03 8.54401e+03
1003 4.50359e+03 8.59398e+03
1004 4.50359e+03 8.69390e+03
1005 4.45355e+03 8.64394e+03
1006 4.40351e+03 8.69390e+03
1007 4.40351e+03 8.59398e+03
1008 4.45355e+03 8.54401e+03
1009 4.50359e+03 8.49405e+03
1010 4.40351e+03 8.49405e+03
1011 4.45355e+03 8.44408e+03
1012 4.50359e+03 8.39411e+03
1013 4.55364e+03 8.34415e+03
1014 4.60368e+03 8.39411e+03
1015 4.60368e+03 8.29418e+03
1016 4.50359e+03 8.29418e+03
1017 4.45355e+03 8.34415e+03
1018 4.40351e+03 8.29418e+03
1019 4.35348e+03 8.34415e+03
1020 4.40351e+03 8.39411e+03
1021 4.35348e+03 8.44408e+03
1022 4.35348e+03 8.54401e+03
1023 4.35348e+03 8.64394e+03
1024 4.30344e+03 8.69390e+03
1025 4.30344e+03 8.59398e+03
1026 4.30344e+03 8.49405e+03
1027 4.30344e+03 8.39411e+03
1028 4.30344e+03 8.29418e+03
1029 3.60288e+03 7.19496e+03
1030 1.90151e+03 7.89446e+03
1031 4.05324e+03 6.04576e+03
1032 4.25340e+03 5.94583e+03
1033 4.30344e+03 5.89587e+03
1034 4.35348e+03 5.74597e+03
1035 4.25340e+03 5.74597e+03
1036 4.15331e+03 5.74597e+03
1037 4.05324e+03 5.74597e+03
1038 4.05324e+03 5.54611e+03
1039 4.35348e+03 5.44618e+03
1040 4.35348e+03 5.34625e+03
1041 4.35348e+03 5.24632e+03
1042 4.45355e+03 5.04646e+03
1043 4.40351e+03 4.79664e+03
1044 4.45355e+03 4.84660e+03
1045 4.15331e+03 5.24632e+03
1046 4.00320e+03 5.09642e+03
1047 4.15331e+03 5.04646e+03
1048 4.05324e+03 4.94653e+03
1049 4.05324e+03 4.74667e+03
1050 4.40351e+03 4.59677e+03
1051 4.35348e+03 4.24702e+03
1052 4.05324e+03 4.14709e+03
1053 4.40351e+03 3.89727e+03
1054 4.30344e+03 3.99720e+03
1055 4.00320e+03 3.79733e+03
1056 4.05324e+03 3.64744e+03
1057 4.00320e+03 3.59748e+03
1058 4.05324e+03 3.44758e+03
1059 4.25340e+03 3.34765e+03
1060 4.15331e+03 3.14779e+03
NODE_SCORE_SECTION
1 1
2 1
3 1
4 1
5 1
6 1
7 1
8 1
9 1
10 1
11 1
12 1
13 1
14 1
15 1
16 1
17 1
18 1
19 1
20 1
21 1
22 1
23 1
24 1
25 1
26 1
27 1
28 1
29 1
30 1
31 1
32 1
33 1
34 1
35 1
36 1
37 1
38 1
39 1
40 1
41 1
42 1
43 1
44 1
45 1
46 1
47 1
48 1
49 1
50 1
51 1
52 1
53 1
54 1
55 1
56 1
57 1
58 1
59 1
60 1
61 1
62 1
63 1
64 1
65 1
66 1
67 1
68 1
69 1
70 1
71 1
72 1
73 1
74 1
75 1
76 1
77 1
78 1
79 1
80 1
81 1
82 1
83 1
84 1
85 1
86 1
87 1
88 1
89 1
90 1
91 1
92 1
93 1
94 1
95 1
96 1
97 1
98 1
99 1
100 1
101 1
102 1
103 1
104 1
105 1
106 1
107 1
108 1
109 1
110 1
111 1
112 1
113 1
114 1
115 1
116 1
117 1
118 1
119 1
120 1
121 1
122 1
123 1
124 1
125 1
126 1
127 1
128 1
129 1
130 1
131 1
132 1
133 1
134 1
135 1
136 1
137 1
138 1
139 1
140 1
141 1
142 1
143 1
144 1
145 1
146 1
147 1
148 1
149 1
150 1
151 1
152 1
153 1
154 1
155 1
156 1
157 1
158 1
159 1
160 1
161 1
162 1
163 1
164 1
165 1
166 1
167 1
168 1
169 1
170 1
171 1
172 1
173 1
174 1
175 1
176 1
177 1
178 1
179 1
180 1
181 1
182 1
183 1
184 1
185 1
186 1
187 1
188 1
189 1
190 1
191 1
192 1
193 1
194 1
195 1
196 1
197 1
198 1
199 1
200 1
201 1
202 1
203 1
204 1
205 1
206 1
207 1
208 1
209 1
210 1
211 1
212 1
213 1
214 1
215 1
216 1
217 1
218 1
219 1
220 1
221 1
222 1
223 1
224 1
225 1
226 1
227 1
228 1
229 1
230 1
231 1
232 1
233 1
234 1
235 1
236 1
237 1
238 1
239 1
240 1
241 1
242 1
243 1
244 1
245 1
246 1
247 1
248 1
249 1
250 1
251 1
252 1
253 1
254 1
255 1
256 1
257 1
258 1
259 1
260 1
261 1
262 1
263 1
264 1
265 1
266 1
267 1
268 1
269 1
270 1
271 1
272 1
273 1
274 1
275 1
276 1
277 1
278 1
279 1
280 1
281 1
282 1
283 1
284 1
285 1
286 1
287 1
288 1
289 1
290 1
291 1
292 1
293 1
294 1
295 1
296 1
297 1
298 1
299 1
300 1
301 1
302 1
303 1
304 1
305 1
306 1
307 1
308 1
309 1
310 1
311 1
312 1
313 1
314 1
315 1
316 1
317 1
318 1
319 1
320 1
321 1
322 1
323 1
324 1
325 1
326 1
327 1
328 1
329 1
330 1
331 1
332 1
333 1
334 1
335 1
336 1
337 1
338 1
339 1
340 1
341 1
342 1
343 1
344 1
345 1
346 1
347 1
348 1
349 1
350 1
351 1
352 1
353 1
354 1
355 1
356 1
357 1
358 1
359 1
360 1
361 1
362 1
363 1
364 1
365 1
366 1
367 1
368 1
369 1
370 1
371 1
372 1
373 1
374 1
375 1
376 1
377 1
378 1
379 1
380 1
381 1
382 1
383 1
384 1
385 1
386 1
387 1
388 1
389 1
390 1
391 1
392 1
393 1
394 1
395 1
396 1
397 1
398 1
399 1
400 1
401 1
402 1
403 1
404 1
405 1
406 1
407 1
408 1
409 1
410 1
411 1
412 1
413 1
414 1
415 1
416 1
417 1
418 1
419 1
420 1
421 1
422 1
423 1
424 1
425 1
426 1
427 1
428 1
429 1
430 1
431 1
432 1
433 1
434 1
435 1
436 1
437 1
438 1
439 1
440 1
441 1
442 1
443 1
444 1
445 1
446 1
447 1
448 1
449 1
450 1
451 1
452 1
453 1
454 1
455 1
456 1
457 1
458 1
459 1
460 1
461 1
462 1
463 1
464 1
465 1
466 1
467 1
468 1
469 1
470 1
471 1
472 1
473 1
474 1
475 1
476 1
477 1
478 1
479 1
480 1
481 1
482 1
483 1
484 1
485 1
486 1
487 1
488 1
489 1
490 1
491 1
492 1
493 1
494 1
495 1
496 1
497 1
498 1
499 1
500 1
501 1
502 1
503 1
504 1
505 1
506 1
507 1
508 1
509 1
510 1
511 1
512 1
513 1
514 1
515 1
516 1
517 1
518 1
519 1
520 1
521 1
522 1
523 1
524 1
525 1
526 1
527 1
528 1
529 1
530 1
531 1
532 1
533 1
534 1
535 1
536 1
537 1
538 1
539 1
540 1
541 1
542 1
543 1
544 1
545 1
546 1
547 1
548 1
549 1
550 1
551 1
552 1
553 1
554 1
555 1
556 1
557 1
558 1
559 1
560 1
561 1
562 1
563 1
564 1
565 1
566 1
567 1
568 1
569 1
570 1
571 1
572 1
573 1
574 1
575 1
576 1
577 1
578 1
579 1
580 1
581 1
582 1
583 1
584 1
585 1
586 1
587 1
588 1
589 1
590 1
591 1
592 1
593 1
594 1
595 1
596 1
597 1
598 1
599 1
600 1
601 1
602 1
603 1
604 1
605 1
606 1
607 1
608 1
609 1
610 1
611 1
612 1
613 1
614 1
615 1
616 1
617 1
618 1
619 1
620 1
621 1
622 1
623 1
624 1
625 1
626 1
627 1
628 1
629 1
630 1
631 1
632 1
633 1
634 1
635 1
636 1
637 1
638 1
639 1
640 1
641 1
642 1
643 1
644 1
645 1
646 1
647 1
648 1
649 1
650 1
651 1
652 1
653 1
654 1
655 1
656 1
657 1
658 1
659 1
660 1
661 1
662 1
663 1
664 1
665 1
666 1
667 1
668 1
669 1
670 1
671 1
672 1
673 1
674 1
675 1
676 1
677 1
678 1
679 1
680 1
681 1
682 1
683 1
684 1
685 1
686 1
687 1
688 1
689 1
690 1
691 1
692 1
693 1
694 1
695 1
696 1
697 1
698 1
699 1
700 1
701 1
702 1
703 1
704 1
705 1
706 1
707 1
708 1
709 1
710 1
711 1
712 1
713 1
714 1
715 1
716 1
717 1
718 1
719 1
720 1
721 1
722 1
723 1
724 1
725 1
726 1
727 1
728 1
729 1
730 1
731 1
732 1
733 1
734 1
735 1
736 1
737 1
738 1
739 1
740 1
741 1
742 1
743 1
744 1
745 1
746 1
747 1
748 1
749 1
750 1
751 1
752 1
753 1
754 1
755 1
756 1
757 1
758 1
759 1
760 1
761 1
762 1
763 1
764 1
765 1
766 1
767 1
768 1
769 1
770 1
771 1
772 1
773 1
774 1
775 1
776 1
777 1
778 1
779 1
780 1
781 1
782 1
783 1
784 1
785 1
786 1
787 1
788 1
789 1
790 1
791 1
792 1
793 1
794 1
795 1
796 1
797 1
798 1
799 1
800 1
801 1
802 1
803 1
804 1
805 1
806 1
807 1
808 1
809 1
810 1
811 1
812 1
813 1
814 1
815 1
816 1
817 1
818 1
819 1
820 1
821 1
822 1
823 1
824 1
825 1
826 1
827 1
828 1
829 1
830 1
831 1
832 1
833 1
834 1
835 1
836 1
837 1
838 1
839 1
840 1
841 1
842 1
843 1
844 1
845 1
846 1
847 1
848 1
849 1
850 1
851 1
852 1
853 1
854 1
855 1
856 1
857 1
858 1
859 1
860 1
861 1
862 1
863 1
864 1
865 1
866 1
867 1
868 1
869 1
870 1
871 1
872 1
873 1
874 1
875 1
876 1
877 1
878 1
879 1
880 1
881 1
882 1
883 1
884 1
885 1
886 1
887 1
888 1
889 1
890 1
891 1
892 1
893 1
894 1
895 1
896 1
897 1
898 1
899 1
900 1
901 1
902 1
903 1
904 1
905 1
906 1
907 1
908 1
909 1
910 1
911 1
912 1
913 1
914 1
915 1
916 1
917 1
918 1
919 1
920 1
921 1
922 1
923 1
924 1
925 1
926 1
927 1
928 1
929 1
930 1
931 1
932 1
933 1
934 1
935 1
936 1
937 1
938 1
939 1
940 1
941 1
942 1
943 1
944 1
945 1
946 1
947 1
948 1
949 1
950 1
951 1
952 1
953 1
954 1
955 1
956 1
957 1
958 1
959 1
960 1
961 1
962 1
963 1
964 1
965 1
966 1
967 1
968 1
969 1
970 1
971 1
972 1
973 1
974 1
975 1
976 1
977 1
978 1
979 1
980 1
981 1
982 1
983 1
984 1
985 1
986 1
987 1
988 1
989 1
990 1
991 1
992 1
993 1
994 1
995 1
996 1
997 1
998 1
999 1
1000 1
1001 1
1002 1
1003 1
1004 1
1005 1
1006 1
1007 1
1008 1
1009 1
1010 1
1011 1
1012 1
1013 1
1014 1
1015 1
1016 1
1017 1
1018 1
1019 1
1020 1
1021 1
1022 1
1023 1
1024 1
1025 1
1026 1
1027 1
1028 1
1029 1
1030 1
1031 1
1032 1
1033 1
1034 1
1035 1
1036 1
1037 1
1038 1
1039 1
1040 1
1041 1
1042 1
1043 1
1044 1
1045 1
1046 1
1047 1
1048 1
1049 1
1050 1
1051 1
1052 1
1053 1
1054 1
1055 1
1056 1
1057 1
1058 1
1059 1
1060 1
DEPOT_SECTION
1
-1
EOF
