single_objective/SL-DABL/OP/problems/op/OPLib-master/solutions/ea4op/gen1/u1060-gen1-50.sol
NAME : u1060
TYPE : OP
DIMENSION : 1060
COST_LIMIT : 112047
ROUTE_NODES : 627
ROUTE_SCORE : 627
ROUTE_COST : 111989
NODE_SEQUENCE_SECTION
1
4
10
11
30
12
29
28
27
26
25
33
34
36
35
24
23
22
21
20
19
17
18
16
15
105
106
107
104
103
108
97
96
95
111
110
109
112
113
115
116
117
119
118
121
129
124
128
130
131
134
135
133
136
138
139
140
141
142
143
144
145
146
147
148
149
150
151
152
153
154
155
157
158
156
165
166
160
159
161
162
163
164
167
168
169
172
170
171
176
175
177
178
179
180
181
182
183
184
185
186
187
188
189
190
205
204
203
202
199
198
197
196
271
272
269
277
278
279
280
283
284
285
287
288
289
291
292
293
294
295
298
299
300
350
351
352
354
355
349
345
346
347
513
512
506
511
510
509
508
507
499
500
501
502
503
504
516
515
517
523
522
521
520
519
482
483
496
495
492
491
493
494
360
361
362
358
363
364
366
367
369
368
490
489
487
488
378
377
379
380
381
382
407
408
409
403
400
401
430
431
432
433
435
434
436
438
439
440
443
444
442
448
447
449
450
458
459
457
456
455
454
453
595
594
596
597
598
599
600
604
605
606
610
611
612
614
617
618
619
620
623
622
626
625
627
628
632
631
636
637
638
639
646
640
641
644
642
669
643
662
661
645
647
648
650
651
652
649
653
654
660
659
655
656
657
666
665
658
663
664
668
667
670
673
672
677
679
712
711
710
709
720
721
722
708
707
706
702
703
705
704
690
689
688
687
694
695
696
697
591
590
589
587
586
584
585
581
580
579
577
576
574
573
572
568
567
566
565
564
563
562
561
560
558
557
556
460
461
465
467
470
471
473
474
472
476
475
480
481
479
526
528
527
531
530
529
551
550
540
541
542
537
536
750
751
752
753
754
755
756
757
758
759
760
761
762
763
764
765
766
767
769
770
768
777
778
776
771
772
773
774
775
779
780
781
782
783
784
785
786
787
788
789
790
791
792
793
794
795
796
797
798
799
800
801
802
803
804
805
341
340
338
337
336
335
333
332
334
807
810
811
812
814
815
817
816
317
316
307
308
315
314
313
309
312
311
310
248
249
252
250
251
236
235
234
233
232
224
223
222
859
860
858
857
856
225
226
227
854
853
229
228
230
231
237
238
239
240
246
245
244
242
241
842
843
844
845
846
847
848
849
850
851
922
921
919
915
916
914
913
912
908
907
905
904
906
903
901
895
894
893
891
890
892
93
94
99
87
86
88
92
91
90
89
82
78
79
80
958
959
961
962
960
957
950
955
951
952
953
928
930
931
929
932
933
934
947
946
945
967
968
969
975
976
977
978
979
980
984
983
985
987
988
989
994
995
996
997
999
1002
1000
1009
1001
1014
1015
1013
1012
1011
1010
1008
1007
1005
1003
998
1004
1006
1024
1023
1025
1022
1026
1021
1020
1017
1016
1018
1019
1027
1028
66
65
63
62
60
61
59
58
1032
1033
1034
1035
1036
1037
1038
1039
1040
1041
1042
1044
1043
1050
1051
1054
1053
1059
1060
-1
DEPOT_SECTION
1
-1
EOF
